     Program PWSCF v.6.4.1 starts on  6Sep2019 at 12:23:43

     K-points division:     npool     =       2
     Reading input from Si.Fd-3m.scf.in

     Current dimensions of program PWSCF are:
     Max number of different atomic species (ntypx) = 10
     Max number of k-points (npk) =  40000
     Max angular momentum in pseudopotentials (lmaxx) =  3
               file Si.pbe-nl-kjpaw_psl.1.0.0.UPF: wavefunction(s)  3S 3P renormalized

     Subspace diagonalization in iterative solution of the eigenvalue problem:
     a serial algorithm will be used

     Message from routine setup:
     DEPRECATED: symmetry with ibrav=0, use correct ibrav instead

     bravais-lattice index     =            0
     lattice parameter (alat)  =      10.3618  a.u.
     unit-cell volume          =     278.1258 (a.u.)^3
     number of atoms/cell      =            2
     number of atomic types    =            1
     number of electrons       =         8.00
     number of Kohn-Sham states=            4
     kinetic-energy cutoff     =      45.0000  Ry
     charge density cutoff     =     175.0000  Ry
     convergence threshold     =      1.0E-10
     mixing beta               =       0.5000
     number of iterations used =            8  plain     mixing
     Exchange-correlation      = SLA PW PBX PBC ( 1  4  3  4 0 0)

     celldm(1)=  10.361766  celldm(2)=   0.000000  celldm(3)=   0.000000
     celldm(4)=   0.000000  celldm(5)=   0.000000  celldm(6)=   0.000000

     crystal axes: (cart. coord. in units of alat)
               a(1) = (   0.000000   0.500000   0.500000 )
               a(2) = (   0.500000   0.000000   0.500000 )
               a(3) = (   0.500000   0.500000   0.000000 )

     reciprocal axes: (cart. coord. in units 2 pi/alat)
               b(1) = ( -1.000000  1.000000  1.000000 )
               b(2) = (  1.000000 -1.000000  1.000000 )
               b(3) = (  1.000000  1.000000 -1.000000 )

     PseudoPot. # 1 for Si read from file:
     /share/pseudo/Si.pbe-nl-kjpaw_psl.1.0.0.UPF
     MD5 check sum: 3686bff6734aab787fb18a3c8374d51f
     Pseudo is Projector augmented-wave + core cor, Zval =  4.0
     Generated using "atomic" code by A. Dal Corso v.6.3
     Shape of augmentation charge: PSQ
     Using radial grid of 1141 points,  4 beta functions with:
                l(1) =   0
                l(2) =   0
                l(3) =   1
                l(4) =   1
     Q(r) pseudized with 0 coefficients

     atomic species   valence    mass     pseudopotential
        Si             4.00    28.08600     Si( 1.00)

     48 Sym. Ops., with inversion, found (24 have fractional translation)

   Cartesian axes

     site n.     atom                  positions (alat units)
         1           Si  tau(   1) = (   0.0000000   0.0000000   0.0000000  )
         2           Si  tau(   2) = (   0.2500000   0.2500000   0.2500000  )

     number of k points=    16
                       cart. coord. in units 2pi/alat
        k(    1) = (   0.0000000   0.0000000   0.0000000), wk =   0.0092593
        k(    2) = (   0.1666667   0.1666667  -0.1666667), wk =   0.0740741
        k(    3) = (   0.3333333   0.3333333  -0.3333333), wk =   0.0740741
        k(    4) = (  -0.5000000  -0.5000000   0.5000000), wk =   0.0370370
        k(    5) = (   0.3333333   0.0000000   0.0000000), wk =   0.0555556
        k(    6) = (   0.5000000   0.1666667  -0.1666667), wk =   0.2222222
        k(    7) = (  -0.3333333  -0.6666667   0.6666667), wk =   0.2222222
        k(    8) = (  -0.1666667  -0.5000000   0.5000000), wk =   0.2222222
        k(    9) = (   0.0000000  -0.3333333   0.3333333), wk =   0.1111111
        k(   10) = (   0.6666667   0.0000000   0.0000000), wk =   0.0555556
        k(   11) = (  -0.1666667  -0.8333333   0.8333333), wk =   0.2222222
        k(   12) = (  -0.0000000  -0.6666667   0.6666667), wk =   0.1111111
        k(   13) = (  -1.0000000   0.0000000   0.0000000), wk =   0.0277778
        k(   14) = (  -0.3333333  -0.6666667   1.0000000), wk =   0.2222222
        k(   15) = (  -0.1666667  -0.5000000   0.8333333), wk =   0.2222222
        k(   16) = (  -1.0000000   0.3333333   0.0000000), wk =   0.1111111

     Initial potential from superposition of free atoms

     starting charge    7.99888, renormalised to    8.00000
     Starting wfcs are    8 randomized atomic wfcs
     Checking if some PAW data can be deallocated...

     Self-consistent Calculation

     iteration #  1     ecut=    45.00 Ry     beta= 0.50
     CG style diagonalization
     ethr =  1.00E-02,  avg # of iterations =  2.8

     Threshold (ethr) on eigenvalues was too large:
     Diagonalizing with lowered threshold

     CG style diagonalization
     ethr =  6.95E-04,  avg # of iterations =  2.3

     total energy              =     -93.45120702 Ry
     Harris-Foulkes estimate   =     -93.46171965 Ry
     estimated scf accuracy    <       0.05422564 Ry

[...]

     total energy              =     -93.45207810 Ry
     Harris-Foulkes estimate   =     -93.45207810 Ry
     estimated scf accuracy    <          1.5E-10 Ry

     iteration # 10     ecut=    45.00 Ry     beta= 0.50
     CG style diagonalization
     ethr =  1.92E-12,  avg # of iterations =  4.5

     End of self-consistent calculation

          k = 0.0000 0.0000 0.0000 (  1411 PWs)   bands (ev):

    -5.8556   5.9128   5.9128   5.9128

[...]

          k =-0.5000-0.5000 0.5000 (  1404 PWs)   bands (ev):

[...]

          k = 0.6667 0.0000 0.0000 (  1427 PWs)   bands (ev):

[...]

          k =-1.0000 0.3333 0.0000 (  1406 PWs)   bands (ev):

    -1.7045  -1.7045   2.3776   2.3776

     highest occupied level (ev):     5.9128

!    total energy              =     -93.45207810 Ry
     Harris-Foulkes estimate   =     -93.45207810 Ry
     estimated scf accuracy    <          6.4E-11 Ry

     total all-electron energy =     -1160.143808 Ry

     The total energy is the sum of the following terms:

     one-electron contribution =       5.50929368 Ry
     hartree contribution      =       1.13097540 Ry
     xc contribution           =      -9.82252910 Ry
     ewald contribution        =     -16.63592288 Ry
     one-center paw contrib.   =     -73.63389520 Ry

     convergence has been achieved in  10 iterations

     Computing stress (Cartesian axis) and pressure

          total   stress  (Ry/bohr**3)                   (kbar)     P=   -6.80
  -0.00004620   0.00000000   0.00000000         -6.80      0.00      0.00
   0.00000000  -0.00004620   0.00000000          0.00     -6.80      0.00
   0.00000000   0.00000000  -0.00004620          0.00      0.00     -6.80

     Writing output data file Si.Fd-3m.save/

     General routines

     Parallel routines

   This run was terminated on:  12:23:54   6Sep2019

   JOB DONE.