     Program PWSCF v.6.4.1 starts on  7Sep2019 at 20:18:23

     K-points division:     npool     =       2
     Reading input from Si.Fd-3m.8-atom.vc-relax.in

     Current dimensions of program PWSCF are:
     Max number of different atomic species (ntypx) = 10
     Max number of k-points (npk) =  40000
     Max angular momentum in pseudopotentials (lmaxx) =  3
               file Si.pbesol-n-kjpaw_psl.1.0.0.UPF: wavefunction(s)  3S 3P renormalized

     Subspace diagonalization in iterative solution of the eigenvalue problem:
     a serial algorithm will be used

     Found symmetry operation: I + (  0.0000 -0.5000 -0.5000)
     This is a supercell, fractional translations are disabled

     bravais-lattice index     =            1
     lattice parameter (alat)  =      10.3200  a.u.
     unit-cell volume          =    1099.1048 (a.u.)^3
     number of atoms/cell      =            8
     number of atomic types    =            1
     number of electrons       =        32.00
     number of Kohn-Sham states=           16
     kinetic-energy cutoff     =      45.0000  Ry
     charge density cutoff     =     180.0000  Ry
     convergence threshold     =      1.0E-12
     mixing beta               =       0.7000
     number of iterations used =            8  plain     mixing
     Exchange-correlation      = SLA PW PSX PSC ( 1  4 10  8 0 0)
     nstep                     =           50

     celldm(1)=  10.320000  celldm(2)=   0.000000  celldm(3)=   0.000000
     celldm(4)=   0.000000  celldm(5)=   0.000000  celldm(6)=   0.000000

     crystal axes: (cart. coord. in units of alat)
               a(1) = (   1.000000   0.000000   0.000000 )
               a(2) = (   0.000000   1.000000   0.000000 )
               a(3) = (   0.000000   0.000000   1.000000 )

     reciprocal axes: (cart. coord. in units 2 pi/alat)
               b(1) = (  1.000000  0.000000  0.000000 )
               b(2) = (  0.000000  1.000000  0.000000 )
               b(3) = (  0.000000  0.000000  1.000000 )

     PseudoPot. # 1 for Si read from file:
     /share/pseudo/Si.pbesol-n-kjpaw_psl.1.0.0.UPF
     MD5 check sum: 9fbd692c527d147d9ad0870b71777ff4
     Pseudo is Projector augmented-wave + core cor, Zval =  4.0
     Generated using "atomic" code by A. Dal Corso v.6.3
     Shape of augmentation charge: PSQ
     Using radial grid of 1141 points,  6 beta functions with:
                l(1) =   0
                l(2) =   0
                l(3) =   1
                l(4) =   1
                l(5) =   2
                l(6) =   2
     Q(r) pseudized with 0 coefficients

     atomic species   valence    mass     pseudopotential
        Si             4.00    28.08600     Si( 1.00)

      cell mass =   0.00100 AMU/(a.u.)^2

     24 Sym. Ops. (no inversion) found

   Cartesian axes

     site n.     atom                  positions (alat units)
         1           Si  tau(   1) = (   0.0000000   0.0000000   0.0000000  )
         2           Si  tau(   2) = (   0.0000000   0.5000000   0.5000000  )
         3           Si  tau(   3) = (   0.5000000   0.0000000   0.5000000  )
         4           Si  tau(   4) = (   0.5000000   0.5000000   0.0000000  )
         5           Si  tau(   5) = (   0.2500000   0.2500000   0.2500000  )
         6           Si  tau(   6) = (   0.2500000   0.7500000   0.7500000  )
         7           Si  tau(   7) = (   0.7500000   0.2500000   0.7500000  )
         8           Si  tau(   8) = (   0.7500000   0.7500000   0.2500000  )

     number of k points=    20
                       cart. coord. in units 2pi/alat
        k(    1) = (   0.0000000   0.0000000   0.0000000), wk =   0.0092593
        k(    2) = (   0.0000000   0.0000000   0.1666667), wk =   0.0555556
        k(    3) = (   0.0000000   0.0000000   0.3333333), wk =   0.0555556
        k(    4) = (   0.0000000   0.0000000  -0.5000000), wk =   0.0277778
        k(    5) = (   0.0000000   0.1666667   0.1666667), wk =   0.1111111
        k(    6) = (   0.0000000   0.1666667   0.3333333), wk =   0.2222222
        k(    7) = (   0.0000000   0.1666667  -0.5000000), wk =   0.1111111
        k(    8) = (   0.0000000   0.3333333   0.3333333), wk =   0.1111111
        k(    9) = (   0.0000000   0.3333333  -0.5000000), wk =   0.1111111
        k(   10) = (   0.0000000  -0.5000000  -0.5000000), wk =   0.0277778
        k(   11) = (   0.1666667   0.1666667   0.1666667), wk =   0.0740741
        k(   12) = (   0.1666667   0.1666667   0.3333333), wk =   0.2222222
        k(   13) = (   0.1666667   0.1666667  -0.5000000), wk =   0.1111111
        k(   14) = (   0.1666667   0.3333333   0.3333333), wk =   0.2222222
        k(   15) = (   0.1666667   0.3333333  -0.5000000), wk =   0.2222222
        k(   16) = (   0.1666667  -0.5000000  -0.5000000), wk =   0.0555556
        k(   17) = (   0.3333333   0.3333333   0.3333333), wk =   0.0740741
        k(   18) = (   0.3333333   0.3333333  -0.5000000), wk =   0.1111111
        k(   19) = (   0.3333333  -0.5000000  -0.5000000), wk =   0.0555556
        k(   20) = (  -0.5000000  -0.5000000  -0.5000000), wk =   0.0092593

     Initial potential from superposition of free atoms

     starting charge   31.99568, renormalised to   32.00000
     Starting wfcs are   32 randomized atomic wfcs
     Checking if some PAW data can be deallocated...

     Self-consistent Calculation

     iteration #  1     ecut=    45.00 Ry     beta= 0.70
     CG style diagonalization
     ethr =  1.00E-02,  avg # of iterations =  2.9

     Threshold (ethr) on eigenvalues was too large:
     Diagonalizing with lowered threshold

     CG style diagonalization
     ethr =  6.65E-04,  avg # of iterations =  2.2

     total energy              =    -365.09388052 Ry
     Harris-Foulkes estimate   =    -365.15978665 Ry
     estimated scf accuracy    <       0.20953471 Ry

[...]

     iteration #  6     ecut=    45.00 Ry     beta= 0.70
     CG style diagonalization
     c_bands:  2 eigenvalues not converged
     c_bands:  1 eigenvalues not converged
     ethr =  1.57E-09,  avg # of iterations =  8.2

[...]

     End of self-consistent calculation

          k = 0.0000 0.0000 0.0000 (  5575 PWs)   bands (ev):

    -5.8947  -1.7970  -1.7970  -1.7970  -1.7970  -1.7970  -1.7970   3.1506
     3.1506   3.1506   3.1506   3.1506   3.1506   5.9800   5.9800   5.9800

[...]

          k =-0.5000-0.5000-0.5000 (  5616 PWs)   bands (ev):

[...]

     highest occupied level (ev):     5.9800

!    total energy              =    -365.10750329 Ry
     Harris-Foulkes estimate   =    -365.10750329 Ry
     estimated scf accuracy    <          2.0E-14 Ry

     convergence has been achieved in  16 iterations

     Forces acting on atoms (cartesian axes, Ry/au):

     atom    1 type  1   force =     0.00000000    0.00000000    0.00000000
     atom    2 type  1   force =     0.00000000    0.00000000    0.00000000
     atom    3 type  1   force =     0.00000000    0.00000000    0.00000000
     atom    4 type  1   force =     0.00000000    0.00000000    0.00000000
     atom    5 type  1   force =     0.00011204    0.00011204    0.00011204
     atom    6 type  1   force =     0.00011204   -0.00011204   -0.00011204
     atom    7 type  1   force =    -0.00011204    0.00011204   -0.00011204
     atom    8 type  1   force =    -0.00011204   -0.00011204    0.00011204

     Total force =     0.000000     Total SCF correction =     0.000000

     Computing stress (Cartesian axis) and pressure

          total   stress  (Ry/bohr**3)                   (kbar)     P=  -14.39
  -0.00009785   0.00000000   0.00000000        -14.39      0.00      0.00
   0.00000000  -0.00009785   0.00000000          0.00    -14.39      0.00
   0.00000000   0.00000000  -0.00009785          0.00      0.00    -14.39

     Wentzcovitch Damped Cell Dynamics Minimization:
     convergence thresholds EPSE = 1.00E-04  EPSF = 1.00E-03

     Entering Dynamics;  it =     1   time =  0.00000 pico-seconds

  new lattice vectors (alat unit) :
   0.999973953   0.000000000   0.000000000
   0.000000000   0.999973953   0.000000000
   0.000000000   0.000000000   0.999973953
  new unit-cell volume =   1099.0189 (a.u.)^3
  new positions in cryst coord
Si       0.000000000   0.000000000   0.000000000
Si       0.000000000   0.500000000   0.500000000
Si       0.500000000   0.000000000   0.500000000
Si       0.500000000   0.500000000   0.000000000
Si       0.250000000   0.250000000   0.250000000
Si       0.250000000   0.750000000   0.750000000
Si       0.750000000   0.250000000   0.750000000
Si       0.750000000   0.750000000   0.250000000
  new positions in cart coord (alat unit)
Si       0.000000000   0.000000000   0.000000000
Si       0.000000000   0.499986976   0.499986976
Si       0.499986976   0.000000000   0.499986976
Si       0.499986976   0.499986976   0.000000000
Si       0.249993488   0.249993488   0.249993488
Si       0.249993488   0.749980465   0.749980465
Si       0.749980465   0.249993488   0.749980465
Si       0.749980465   0.749980465   0.249993488

     Ekin =     0.00000000 Ry    T =    0.0 K  Etot =  -365.10750329
     new unit-cell volume =   1099.01888 a.u.^3 (   162.85779 Ang^3 )
     density =      2.29098 g/cm^3

CELL_PARAMETERS (alat= 10.32000000)
   0.999973953   0.000000000   0.000000000
   0.000000000   0.999973953   0.000000000
   0.000000000   0.000000000   0.999973953

ATOMIC_POSITIONS (alat)
Si       0.000000000   0.000000000   0.000000000    0   0   0
Si       0.000000000   0.499986976   0.499986976    0   0   0
Si       0.499986976   0.000000000   0.499986976    0   0   0
Si       0.499986976   0.499986976   0.000000000    0   0   0
Si       0.249993488   0.249993488   0.249993488    0   0   0
Si       0.249993488   0.749980465   0.749980465    0   0   0
Si       0.749980465   0.249993488   0.749980465    0   0   0
Si       0.749980465   0.749980465   0.249993488    0   0   0

     Writing output data file Si.Fd-3m.8-atom.vc-relax.save/
     NEW-OLD atomic charge density approx. for the potential
     extrapolated charge   31.99750, renormalised to   32.00000

[...]

     Entering Dynamics;  it =    18   time =  0.01646 pico-seconds

  new lattice vectors (alat unit) :
   0.994715538   0.000000000   0.000000000
   0.000000000   0.994715538   0.000000000
   0.000000000   0.000000000   0.994715538
  new unit-cell volume =   1081.7722 (a.u.)^3
  new positions in cryst coord
Si       0.000000000   0.000000000   0.000000000
Si      -0.000000000   0.500000000   0.500000000
Si       0.500000000  -0.000000000   0.500000000
Si       0.500000000   0.500000000  -0.000000000
Si       0.250000000   0.250000000   0.250000000
Si       0.250000000   0.750000000   0.750000000
Si       0.750000000   0.250000000   0.750000000
Si       0.750000000   0.750000000   0.250000000
  new positions in cart coord (alat unit)
Si       0.000000000   0.000000000   0.000000000
Si      -0.000000000   0.497357769   0.497357769
Si       0.497357769  -0.000000000   0.497357769
Si       0.497357769   0.497357769  -0.000000000
Si       0.248678885   0.248678885   0.248678885
Si       0.248678885   0.746036654   0.746036654
Si       0.746036654   0.248678885   0.746036654
Si       0.746036654   0.746036654   0.248678885

     Ekin =     0.00085115 Ry    T =    5.0 K  Etot =  -365.10750251
     new unit-cell volume =   1081.77215 a.u.^3 (   160.30209 Ang^3 )
     density =      2.32750 g/cm^3

[...]

ATOMIC_POSITIONS (alat)
Si       0.000000000   0.000000000   0.000000000    0   0   0
Si      -0.000000000   0.497357769   0.497357769    0   0   0
Si       0.497357769  -0.000000000   0.497357769    0   0   0
Si       0.497357769   0.497357769  -0.000000000    0   0   0
Si       0.248678885   0.248678885   0.248678885    0   0   0
Si       0.248678885   0.746036654   0.746036654    0   0   0
Si       0.746036654   0.248678885   0.746036654    0   0   0
Si       0.746036654   0.746036654   0.248678885    0   0   0

     Writing output data file Si.Fd-3m.8-atom.vc-relax.save/
     NEW-OLD atomic charge density approx. for the potential
     extrapolated charge   31.95561, renormalised to   32.00000

     Self-consistent Calculation

[...]

     Threshold (ethr) on eigenvalues was too large:
     Diagonalizing with lowered threshold

     CG style diagonalization
     ethr =  9.74E-09,  avg # of iterations =  3.1

[...]

     total energy              =    -365.10835968 Ry
     Harris-Foulkes estimate   =    -365.10835968 Ry
     estimated scf accuracy    <          1.5E-11 Ry

     iteration #  9     ecut=    45.00 Ry     beta= 0.70
     CG style diagonalization
     ethr =  1.00E-13,  avg # of iterations =  3.0

     End of self-consistent calculation

[...]

          k = 0.3351-0.5027-0.5027 (  5644 PWs)   bands (ev):

[...]

          k =-0.5027-0.5027-0.5027 (  5616 PWs)   bands (ev):

    -3.4928  -3.4928  -3.4928  -3.4928  -0.8656  -0.8656  -0.8656  -0.8655
     4.9423   4.9423   4.9423   4.9424   4.9424   4.9424   4.9425   4.9425

     highest occupied level (ev):     6.1451

!    total energy              =    -365.10835968 Ry
     Harris-Foulkes estimate   =    -365.10835968 Ry
     estimated scf accuracy    <          6.3E-13 Ry

     convergence has been achieved in   9 iterations

     Forces acting on atoms (cartesian axes, Ry/au):

     atom    1 type  1   force =     0.00000000    0.00000000    0.00000000
     atom    2 type  1   force =     0.00000000    0.00000000    0.00000000
     atom    3 type  1   force =     0.00000000    0.00000000    0.00000000
     atom    4 type  1   force =     0.00000000    0.00000000    0.00000000
     atom    5 type  1   force =     0.00010007    0.00010007    0.00010007
     atom    6 type  1   force =     0.00010007   -0.00010007   -0.00010007
     atom    7 type  1   force =    -0.00010007    0.00010007   -0.00010007
     atom    8 type  1   force =    -0.00010007   -0.00010007    0.00010007

     Total force =     0.000000     Total SCF correction =     0.000000

     Computing stress (Cartesian axis) and pressure

          total   stress  (Ry/bohr**3)                   (kbar)     P=    0.06
   0.00000041   0.00000000   0.00000000          0.06      0.00      0.00
   0.00000000   0.00000041   0.00000000          0.00      0.06      0.00
   0.00000000   0.00000000   0.00000041          0.00      0.00      0.06

     Wentzcovitch Damped Cell Dynamics Minimization:
     convergence achieved, Efinal=  -365.10835968

     Final estimate of lattice vectors (input alat units)
   0.994715538   0.000000000   0.000000000
   0.000000000   0.994715538   0.000000000
   0.000000000   0.000000000   0.994715538
  final unit-cell volume =   1081.7722 (a.u.)^3
  input alat =      10.3200 (a.u.)
Begin final coordinates
     new unit-cell volume =   1081.77215 a.u.^3 (   160.30209 Ang^3 )
     density =      2.32750 g/cm^3

CELL_PARAMETERS (alat= 10.32000000)
   0.994715538   0.000000000   0.000000000
   0.000000000   0.994715538   0.000000000
   0.000000000   0.000000000   0.994715538

ATOMIC_POSITIONS (alat)
Si       0.000000000   0.000000000   0.000000000    0   0   0
Si      -0.000000000   0.497357769   0.497357769    0   0   0
Si       0.497357769  -0.000000000   0.497357769    0   0   0
Si       0.497357769   0.497357769  -0.000000000    0   0   0
Si       0.248678885   0.248678885   0.248678885    0   0   0
Si       0.248678885   0.746036654   0.746036654    0   0   0
Si       0.746036654   0.248678885   0.746036654    0   0   0
Si       0.746036654   0.746036654   0.248678885    0   0   0
End final coordinates

     Writing output data file Si.Fd-3m.8-atom.vc-relax.save/

     General routines

     Parallel routines

   This run was terminated on:  21:55:51   7Sep2019

   JOB DONE.